<number of tasks>
20

<cycle time>
1000

<order strength>
0,179


<task times>
1 279
2 82
3 66
4 205
5 146
6 75
7 180
8 132
9 126
10 179
11 123
12 74
13 111
14 137
15 144
16 201
17 373
18 57
19 30
20 46

<precedence relations>
1,5
2,6
3,7
3,8
3,10
4,9
4,11
5,14
6,12
7,13
12,15
13,16
14,17
15,18
16,19
16,20

<end>
